50
0 22
0 36
0 43
0 47
1 10
1 17
2 24
2 37
3 32
3 46
4 16
4 32
4 40
5 19
5 36
5 41
5 46
6 20
6 27
6 36
7 21
7 48
8 10
8 27
8 40
8 41
9 46
10 15
10 19
10 38
10 40
10 42
10 43
11 32
11 35
11 38
12 19
12 25
12 35
13 24
13 25
13 36
14 24
14 27
14 35
14 42
15 17
15 37
16 30
17 26
17 35
18 21
18 34
18 42
18 43
20 25
20 27
20 28
20 29
21 27
21 40
22 34
22 36
22 43
23 28
23 45
24 37
24 48
26 29
26 30
26 36
26 41
26 44
26 46
28 33
28 36
28 44
29 42
30 42
30 49
31 43
31 46
31 47
32 35
32 38
33 36
33 47
33 49
34 46
35 45
37 39
37 42
39 49
41 44
48 49
